(set-option :produce-models true)
(set-logic QF_LRA)
(set-info :notes | Strip-packing problem.|)
(declare-fun x0 () Real)
(declare-fun y0 () Real)
(declare-fun x1 () Real)
(declare-fun y1 () Real)
(declare-fun x2 () Real)
(declare-fun y2 () Real)
(declare-fun x3 () Real)
(declare-fun y3 () Real)
(declare-fun x4 () Real)
(declare-fun y4 () Real)
(declare-fun x5 () Real)
(declare-fun y5 () Real)
(declare-fun x6 () Real)
(declare-fun y6 () Real)
(declare-fun x7 () Real)
(declare-fun y7 () Real)
(declare-fun x8 () Real)
(declare-fun y8 () Real)
(declare-fun z () Real)
(declare-fun c () Real)
(assert (and (= c z) (and (>= x0 0) 
(and (>= y0 0) 
(and (>= x1 0) 
(and (>= y1 0) 
(and (>= x2 0) 
(and (>= y2 0) 
(and (>= x3 0) 
(and (>= y3 0) 
(and (>= x4 0) 
(and (>= y4 0) 
(and (>= x5 0) 
(and (>= y5 0) 
(and (>= x6 0) 
(and (>= y6 0) 
(and (>= x7 0) 
(and (>= y7 0) 
(and (>= x8 0) 
(and (>= y8 0) 
(and (>= z 0) 
(and (>= c 0) 
(and (<= (+ x0 0.1968942004) z) 
(and (<= 0.7986328848 y0) 
(and (<= y0 1.0) 
(and (<= x0 (- 2.6202184074 0.1968942004)) 
(and (>= x0 0) 
(and (<= (+ x1 0.5238417378) z) 
(and (<= 0.3697809457 y1) 
(and (<= y1 1.0) 
(and (<= x1 (- 2.6202184074 0.5238417378)) 
(and (>= x1 0) 
(and (<= (+ x2 0.1805826815) z) 
(and (<= 0.3470310943 y2) 
(and (<= y2 1.0) 
(and (<= x2 (- 2.6202184074 0.1805826815)) 
(and (>= x2 0) 
(and (<= (+ x3 0.9163340896) z) 
(and (<= 0.3205352209 y3) 
(and (<= y3 1.0) 
(and (<= x3 (- 2.6202184074 0.9163340896)) 
(and (>= x3 0) 
(and (<= (+ x4 0.5599636942) z) 
(and (<= 0.2787114007 y4) 
(and (<= y4 1.0) 
(and (<= x4 (- 2.6202184074 0.5599636942)) 
(and (>= x4 0) 
(and (<= (+ x5 0.2958855561) z) 
(and (<= 0.1960050119 y5) 
(and (<= y5 1.0) 
(and (<= x5 (- 2.6202184074 0.2958855561)) 
(and (>= x5 0) 
(and (<= (+ x6 0.852569043) z) 
(and (<= 0.1386685862 y6) 
(and (<= y6 1.0) 
(and (<= x6 (- 2.6202184074 0.852569043)) 
(and (>= x6 0) 
(and (<= (+ x7 0.5960390304) z) 
(and (<= 0.0799759873 y7) 
(and (<= y7 1.0) 
(and (<= x7 (- 2.6202184074 0.5960390304)) 
(and (>= x7 0) 
(and (<= (+ x8 0.9831483796) z) 
(and (<= 0.0123894493 y8) 
(and (<= y8 1.0) 
(and (<= x8 (- 2.6202184074 0.9831483796)) 
(and (>= x8 0) 
(and (<= c 2.6202184074) 
(and (or (<= (+ x0 0.1968942004) x1) (or (<= (+ x1 0.5238417378) x0) (or (>= (- y0 0.7986328848) y1) (or (>= (- y1 0.3697809457) y0))))) 
(and (or (<= (+ x0 0.1968942004) x2) (or (<= (+ x2 0.1805826815) x0) (or (>= (- y0 0.7986328848) y2) (or (>= (- y2 0.3470310943) y0))))) 
(and (or (<= (+ x0 0.1968942004) x3) (or (<= (+ x3 0.9163340896) x0) (or (>= (- y0 0.7986328848) y3) (or (>= (- y3 0.3205352209) y0))))) 
(and (or (<= (+ x0 0.1968942004) x4) (or (<= (+ x4 0.5599636942) x0) (or (>= (- y0 0.7986328848) y4) (or (>= (- y4 0.2787114007) y0))))) 
(and (or (<= (+ x0 0.1968942004) x5) (or (<= (+ x5 0.2958855561) x0) (or (>= (- y0 0.7986328848) y5) (or (>= (- y5 0.1960050119) y0))))) 
(and (or (<= (+ x0 0.1968942004) x6) (or (<= (+ x6 0.852569043) x0) (or (>= (- y0 0.7986328848) y6) (or (>= (- y6 0.1386685862) y0))))) 
(and (or (<= (+ x0 0.1968942004) x7) (or (<= (+ x7 0.5960390304) x0) (or (>= (- y0 0.7986328848) y7) (or (>= (- y7 0.0799759873) y0))))) 
(and (or (<= (+ x0 0.1968942004) x8) (or (<= (+ x8 0.9831483796) x0) (or (>= (- y0 0.7986328848) y8) (or (>= (- y8 0.0123894493) y0))))) 
(and (or (<= (+ x1 0.5238417378) x2) (or (<= (+ x2 0.1805826815) x1) (or (>= (- y1 0.3697809457) y2) (or (>= (- y2 0.3470310943) y1))))) 
(and (or (<= (+ x1 0.5238417378) x3) (or (<= (+ x3 0.9163340896) x1) (or (>= (- y1 0.3697809457) y3) (or (>= (- y3 0.3205352209) y1))))) 
(and (or (<= (+ x1 0.5238417378) x4) (or (<= (+ x4 0.5599636942) x1) (or (>= (- y1 0.3697809457) y4) (or (>= (- y4 0.2787114007) y1))))) 
(and (or (<= (+ x1 0.5238417378) x5) (or (<= (+ x5 0.2958855561) x1) (or (>= (- y1 0.3697809457) y5) (or (>= (- y5 0.1960050119) y1))))) 
(and (or (<= (+ x1 0.5238417378) x6) (or (<= (+ x6 0.852569043) x1) (or (>= (- y1 0.3697809457) y6) (or (>= (- y6 0.1386685862) y1))))) 
(and (or (<= (+ x1 0.5238417378) x7) (or (<= (+ x7 0.5960390304) x1) (or (>= (- y1 0.3697809457) y7) (or (>= (- y7 0.0799759873) y1))))) 
(and (or (<= (+ x1 0.5238417378) x8) (or (<= (+ x8 0.9831483796) x1) (or (>= (- y1 0.3697809457) y8) (or (>= (- y8 0.0123894493) y1))))) 
(and (or (<= (+ x2 0.1805826815) x3) (or (<= (+ x3 0.9163340896) x2) (or (>= (- y2 0.3470310943) y3) (or (>= (- y3 0.3205352209) y2))))) 
(and (or (<= (+ x2 0.1805826815) x4) (or (<= (+ x4 0.5599636942) x2) (or (>= (- y2 0.3470310943) y4) (or (>= (- y4 0.2787114007) y2))))) 
(and (or (<= (+ x2 0.1805826815) x5) (or (<= (+ x5 0.2958855561) x2) (or (>= (- y2 0.3470310943) y5) (or (>= (- y5 0.1960050119) y2))))) 
(and (or (<= (+ x2 0.1805826815) x6) (or (<= (+ x6 0.852569043) x2) (or (>= (- y2 0.3470310943) y6) (or (>= (- y6 0.1386685862) y2))))) 
(and (or (<= (+ x2 0.1805826815) x7) (or (<= (+ x7 0.5960390304) x2) (or (>= (- y2 0.3470310943) y7) (or (>= (- y7 0.0799759873) y2))))) 
(and (or (<= (+ x2 0.1805826815) x8) (or (<= (+ x8 0.9831483796) x2) (or (>= (- y2 0.3470310943) y8) (or (>= (- y8 0.0123894493) y2))))) 
(and (or (<= (+ x3 0.9163340896) x4) (or (<= (+ x4 0.5599636942) x3) (or (>= (- y3 0.3205352209) y4) (or (>= (- y4 0.2787114007) y3))))) 
(and (or (<= (+ x3 0.9163340896) x5) (or (<= (+ x5 0.2958855561) x3) (or (>= (- y3 0.3205352209) y5) (or (>= (- y5 0.1960050119) y3))))) 
(and (or (<= (+ x3 0.9163340896) x6) (or (<= (+ x6 0.852569043) x3) (or (>= (- y3 0.3205352209) y6) (or (>= (- y6 0.1386685862) y3))))) 
(and (or (<= (+ x3 0.9163340896) x7) (or (<= (+ x7 0.5960390304) x3) (or (>= (- y3 0.3205352209) y7) (or (>= (- y7 0.0799759873) y3))))) 
(and (or (<= (+ x3 0.9163340896) x8) (or (<= (+ x8 0.9831483796) x3) (or (>= (- y3 0.3205352209) y8) (or (>= (- y8 0.0123894493) y3))))) 
(and (or (<= (+ x4 0.5599636942) x5) (or (<= (+ x5 0.2958855561) x4) (or (>= (- y4 0.2787114007) y5) (or (>= (- y5 0.1960050119) y4))))) 
(and (or (<= (+ x4 0.5599636942) x6) (or (<= (+ x6 0.852569043) x4) (or (>= (- y4 0.2787114007) y6) (or (>= (- y6 0.1386685862) y4))))) 
(and (or (<= (+ x4 0.5599636942) x7) (or (<= (+ x7 0.5960390304) x4) (or (>= (- y4 0.2787114007) y7) (or (>= (- y7 0.0799759873) y4))))) 
(and (or (<= (+ x4 0.5599636942) x8) (or (<= (+ x8 0.9831483796) x4) (or (>= (- y4 0.2787114007) y8) (or (>= (- y8 0.0123894493) y4))))) 
(and (or (<= (+ x5 0.2958855561) x6) (or (<= (+ x6 0.852569043) x5) (or (>= (- y5 0.1960050119) y6) (or (>= (- y6 0.1386685862) y5))))) 
(and (or (<= (+ x5 0.2958855561) x7) (or (<= (+ x7 0.5960390304) x5) (or (>= (- y5 0.1960050119) y7) (or (>= (- y7 0.0799759873) y5))))) 
(and (or (<= (+ x5 0.2958855561) x8) (or (<= (+ x8 0.9831483796) x5) (or (>= (- y5 0.1960050119) y8) (or (>= (- y8 0.0123894493) y5))))) 
(and (or (<= (+ x6 0.852569043) x7) (or (<= (+ x7 0.5960390304) x6) (or (>= (- y6 0.1386685862) y7) (or (>= (- y7 0.0799759873) y6))))) 
(and (or (<= (+ x6 0.852569043) x8) (or (<= (+ x8 0.9831483796) x6) (or (>= (- y6 0.1386685862) y8) (or (>= (- y8 0.0123894493) y6))))) 
(and (or (<= (+ x7 0.5960390304) x8) (or (<= (+ x8 0.9831483796) x7) (or (>= (- y7 0.0799759873) y8) (or (>= (- y8 0.0123894493) y7))))) ))))))))))))))))))))))))))))))))))))))))))))))))))))))))))))))))))))))))))))))))))))))))))))))))))))))))
(minimize c)
(check-sat)
(get-objectives)
(exit)
